decision_x1=[0,4];
decision_x2=[0,4];
decision_x3=[0,4];
decision_x4=[0,4];
decision_x5=[0,4];
decision_x6=[0,4];
decision_x7=[0,4];
decision_x8=[0,4];
decision_x9=[0,4];
decision_x10=[0,4];
random_y1=[0,4];
random_y2=[0,4];
random_y3=[0,4];
random_y4=[0,4];
random_y5=[0,4];
constraint_x2_x1=[
0,1,8.9|
0,2,4.4|
0,3,0.02|
0,4,0.096|
1,0,4.9|
1,2,2.2|
1,3,2.3|
1,4,5.9|
2,0,5.4|
2,1,2.9|
2,3,5.7|
2,4,9.2|
3,0,7.5|
3,1,5|
3,2,2.9|
3,4,5.5|
4,0,6.7|
4,1,0.19|
4,2,4.7|
4,3,9.7|
];
constraint_x3_x2=[
0,1,7.3|
0,2,6.5|
0,3,2.2|
0,4,5.1|
1,0,2.2|
1,2,0.22|
1,3,5.4|
1,4,6.3|
2,0,0.27|
2,1,0.88|
2,3,4.8|
2,4,0.11|
3,0,2.2|
3,1,2.2|
3,2,4.6|
3,4,9.1|
4,0,0.2|
4,1,0.6|
4,2,5.7|
4,3,2.7|
];
constraint_x4_x3=[
0,1,5.2|
0,2,1.9|
0,3,1.8|
0,4,8.9|
1,0,2.3|
1,2,2.8|
1,3,6|
1,4,2.7|
2,0,8.1|
2,1,0.2|
2,3,4.2|
2,4,4.8|
3,0,2.9|
3,1,2.8|
3,2,8|
3,4,3.8|
4,0,4.9|
4,1,6.8|
4,2,6.6|
4,3,1.1|
];
constraint_x5_x1=[
0,1,4|
0,2,7.9|
0,3,6.6|
0,4,5.8|
1,0,2.8|
1,2,7.5|
1,3,1.8|
1,4,3.1|
2,0,3.8|
2,1,7|
2,3,9.3|
2,4,8.7|
3,0,5.2|
3,1,6.7|
3,2,9.9|
3,4,6.1|
4,0,3|
4,1,4.7|
4,2,1.6|
4,3,1.3|
];
constraint_x5_x2=[
0,1,1.4|
0,2,1.5|
0,3,0.17|
0,4,2.1|
1,0,1.6|
1,2,10|
1,3,8.5|
1,4,5|
2,0,8.3|
2,1,2.9|
2,3,7.2|
2,4,6.3|
3,0,0.97|
3,1,7.8|
3,2,3.9|
3,4,7.5|
4,0,5.6|
4,1,10|
4,2,7.2|
4,3,3.3|
];
constraint_x5_x3=[
0,1,2.6|
0,2,9|
0,3,7.7|
0,4,9.8|
1,0,6.5|
1,2,2.8|
1,3,3.2|
1,4,2.2|
2,0,2.6|
2,1,2.3|
2,3,0.29|
2,4,4.8|
3,0,2|
3,1,7.5|
3,2,6.5|
3,4,9.2|
4,0,7.7|
4,1,5.3|
4,2,2.2|
4,3,1.9|
];
constraint_x6_x1=[
0,1,2.7|
0,2,9.3|
0,3,6.9|
0,4,0.63|
1,0,0.094|
1,2,8|
1,3,4.9|
1,4,6|
2,0,2.6|
2,1,0.39|
2,3,8.3|
2,4,3.6|
3,0,8.2|
3,1,3.2|
3,2,9.8|
3,4,7.7|
4,0,6.8|
4,1,0.39|
4,2,2.9|
4,3,3.3|
];
constraint_x6_x3=[
0,1,9.8|
0,2,6.2|
0,3,5.9|
0,4,6.3|
1,0,6.9|
1,2,5.2|
1,3,1.6|
1,4,0.13|
2,0,5.9|
2,1,4.7|
2,3,3.2|
2,4,3.3|
3,0,1.5|
3,1,1.7|
3,2,3.6|
3,4,3.9|
4,0,6.6|
4,1,6.9|
4,2,2|
4,3,1.4|
];
constraint_x6_x4=[
0,1,9.7|
0,2,3.7|
0,3,0.084|
0,4,2.1|
1,0,4.2|
1,2,0.57|
1,3,6.5|
1,4,5.2|
2,0,9.9|
2,1,2.6|
2,3,1.5|
2,4,3.3|
3,0,7.9|
3,1,5.2|
3,2,8.6|
3,4,9|
4,0,9.6|
4,1,8.1|
4,2,1.6|
4,3,4|
];
constraint_x6_x5=[
0,1,5.1|
0,2,9.6|
0,3,2.5|
0,4,3.3|
1,0,8|
1,2,7.6|
1,3,7.7|
1,4,7.7|
2,0,4.9|
2,1,6|
2,3,6|
2,4,9.5|
3,0,7.7|
3,1,0.52|
3,2,2.4|
3,4,3.6|
4,0,0.14|
4,1,2.2|
4,2,3.8|
4,3,9.3|
];
constraint_x7_x4=[
0,1,2|
0,2,5.1|
0,3,4.4|
0,4,4.4|
1,0,0.25|
1,2,3.7|
1,3,0.21|
1,4,9.7|
2,0,1.6|
2,1,0.5|
2,3,2.6|
2,4,0.72|
3,0,4.1|
3,1,9.9|
3,2,2.3|
3,4,7.1|
4,0,6.6|
4,1,0.59|
4,2,9.1|
4,3,1.8|
];
constraint_x7_x6=[
0,1,6.6|
0,2,3.3|
0,3,6.1|
0,4,1.5|
1,0,0.36|
1,2,5.9|
1,3,0.67|
1,4,2.5|
2,0,5.6|
2,1,5.6|
2,3,1.6|
2,4,7.5|
3,0,4.7|
3,1,4.1|
3,2,2.4|
3,4,4.6|
4,0,0.45|
4,1,6.1|
4,2,8|
4,3,8.3|
];
constraint_x8_x2=[
0,1,3|
0,2,9|
0,3,7.5|
0,4,8.2|
1,0,6.4|
1,2,6.3|
1,3,2.4|
1,4,5.5|
2,0,6.7|
2,1,3.1|
2,3,2.8|
2,4,6.8|
3,0,5.4|
3,1,8.7|
3,2,7.7|
3,4,0.65|
4,0,1.5|
4,1,9.7|
4,2,4.3|
4,3,5.6|
];
constraint_x8_x5=[
0,1,2.3|
0,2,7.5|
0,3,6.4|
0,4,4.2|
1,0,1.6|
1,2,4.5|
1,3,3|
1,4,5.3|
2,0,3.5|
2,1,6.7|
2,3,9.3|
2,4,0.92|
3,0,1.9|
3,1,6.5|
3,2,6.2|
3,4,5.5|
4,0,2.2|
4,1,1.8|
4,2,0.43|
4,3,2.8|
];
constraint_x8_x6=[
0,1,6.3|
0,2,4.9|
0,3,5.8|
0,4,4.2|
1,0,1.2|
1,2,8.2|
1,3,7.1|
1,4,2.2|
2,0,5.5|
2,1,0.013|
2,3,1.7|
2,4,1.3|
3,0,1.7|
3,1,6.4|
3,2,0.08|
3,4,3.4|
4,0,8.7|
4,1,1.8|
4,2,4.1|
4,3,9.7|
];
constraint_x9_x1=[
0,1,1.1|
0,2,5|
0,3,2.1|
0,4,2|
1,0,0.49|
1,2,1.9|
1,3,8.9|
1,4,1.2|
2,0,8.2|
2,1,3|
2,3,0.015|
2,4,0.083|
3,0,2.5|
3,1,0.5|
3,2,5.3|
3,4,2|
4,0,2.7|
4,1,9.9|
4,2,9.2|
4,3,6|
];
constraint_x9_x2=[
0,1,1.8|
0,2,2.7|
0,3,2.5|
0,4,6.6|
1,0,7.8|
1,2,4.3|
1,3,0.74|
1,4,9.1|
2,0,1.6|
2,1,9.8|
2,3,6.3|
2,4,3.3|
3,0,6.1|
3,1,0.42|
3,2,7.6|
3,4,9.5|
4,0,6.6|
4,1,9.6|
4,2,4.9|
4,3,2.8|
];
constraint_x9_x5=[
0,1,7.9|
0,2,5.1|
0,3,5.6|
0,4,0.2|
1,0,3.3|
1,2,2|
1,3,6.6|
1,4,1.7|
2,0,4.4|
2,1,9.4|
2,3,9.8|
2,4,0.61|
3,0,7.4|
3,1,9.2|
3,2,8.8|
3,4,5.7|
4,0,4.6|
4,1,3.9|
4,2,0.06|
4,3,2.2|
];
constraint_x9_x6=[
0,1,1.1|
0,2,4.7|
0,3,1.7|
0,4,8.6|
1,0,8.3|
1,2,0.5|
1,3,7.3|
1,4,0.71|
2,0,0.65|
2,1,8.1|
2,3,5.3|
2,4,3.6|
3,0,4.8|
3,1,6.6|
3,2,0.46|
3,4,8.5|
4,0,9|
4,1,9.6|
4,2,7|
4,3,5.2|
];
constraint_x9_x8=[
0,1,1.6|
0,2,4.2|
0,3,1.9|
0,4,7.4|
1,0,4.3|
1,2,7.5|
1,3,2.5|
1,4,6|
2,0,0.29|
2,1,8.4|
2,3,9.4|
2,4,9|
3,0,7.8|
3,1,8.2|
3,2,3.5|
3,4,9.1|
4,0,8.9|
4,1,6|
4,2,2.7|
4,3,4.5|
];
constraint_x10_x4=[
0,1,7.1|
0,2,5.8|
0,3,9.2|
0,4,2.6|
1,0,9.2|
1,2,0.4|
1,3,9.5|
1,4,5.9|
2,0,1.5|
2,1,0.78|
2,3,9.1|
2,4,3.5|
3,0,6.7|
3,1,5.7|
3,2,6.5|
3,4,0.65|
4,0,3.3|
4,1,2.6|
4,2,1.5|
4,3,8.2|
];
constraint_x10_x6=[
0,1,8|
0,2,4.6|
0,3,0.042|
0,4,9|
1,0,9.1|
1,2,8.7|
1,3,6.1|
1,4,5.6|
2,0,8.8|
2,1,6.4|
2,3,0.43|
2,4,5.5|
3,0,0.3|
3,1,0.16|
3,2,9.9|
3,4,6.2|
4,0,2.2|
4,1,4.8|
4,2,7.1|
4,3,9.2|
];
constraint_x10_x8=[
0,1,4.6|
0,2,3|
0,3,6.9|
0,4,5.9|
1,0,0.95|
1,2,2.4|
1,3,7.2|
1,4,2.2|
2,0,8.1|
2,1,6.7|
2,3,0.33|
2,4,6.1|
3,0,0.17|
3,1,8.3|
3,2,3.9|
3,4,4.6|
4,0,4.6|
4,1,9.4|
4,2,4.6|
4,3,3.4|
];
constraint_x1_y1=[
0,0,8.4|
0,1,5.3|
0,2,7.9|
0,3,7.6|
0,4,7.5|
1,0,4.5|
1,1,0.64|
1,2,2.7|
1,3,9|
1,4,7.1|
2,0,5.1|
2,1,1.3|
2,2,0.028|
2,3,9|
2,4,2.2|
3,0,3.6|
3,1,4.1|
3,2,9.1|
3,3,0.39|
3,4,0.89|
4,0,5.6|
4,1,9.7|
4,2,1.3|
4,3,0.27|
4,4,2.7|
];
constraint_x2_y2=[
0,0,1.5|
0,1,8.9|
0,2,8.6|
0,3,5.5|
0,4,9.6|
1,0,2.2|
1,1,8|
1,2,5.4|
1,3,8.4|
1,4,8.6|
2,0,1.9|
2,1,4.9|
2,2,4.8|
2,3,6.2|
2,4,3.5|
3,0,7.6|
3,1,6|
3,2,0.21|
3,3,0.45|
3,4,4.8|
4,0,4.6|
4,1,6.6|
4,2,9.4|
4,3,1.7|
4,4,7.4|
];
constraint_x3_y3=[
0,0,0.25|
0,1,3.8|
0,2,1|
0,3,9.9|
0,4,7.5|
1,0,5|
1,1,0.94|
1,2,0.023|
1,3,7.6|
1,4,2.3|
2,0,6|
2,1,6|
2,2,1.7|
2,3,2.6|
2,4,2.2|
3,0,4.3|
3,1,5.3|
3,2,7.6|
3,3,3.9|
3,4,4.7|
4,0,0.017|
4,1,2.2|
4,2,3.1|
4,3,6.7|
4,4,4.4|
];
constraint_x4_y4=[
0,0,1|
0,1,5.2|
0,2,4.3|
0,3,3.4|
0,4,9.5|
1,0,4|
1,1,1.1|
1,2,9.9|
1,3,9.3|
1,4,3.6|
2,0,8.8|
2,1,4|
2,2,6|
2,3,2.5|
2,4,3.5|
3,0,5.1|
3,1,5.5|
3,2,2.2|
3,3,2.1|
3,4,8.3|
4,0,8|
4,1,8.8|
4,2,6.2|
4,3,8.8|
4,4,2.6|
];
constraint_x5_y5=[
0,0,1|
0,1,1.7|
0,2,6|
0,3,2.7|
0,4,2.9|
1,0,4.5|
1,1,6.3|
1,2,3.7|
1,3,1.9|
1,4,9.4|
2,0,1.2|
2,1,3.5|
2,2,3.1|
2,3,4.6|
2,4,1.4|
3,0,2.2|
3,1,8.9|
3,2,4.1|
3,3,9|
3,4,2.8|
4,0,0.97|
4,1,6.8|
4,2,9.2|
4,3,4.7|
4,4,5.3|
];
initial_distribution_y1=[0.18,0.33,0.29,0.017,0.18];
initial_distribution_y2=[0.048,0.015,0.5,0.25,0.18];
initial_distribution_y3=[0.33,0.21,0.16,0.16,0.13];
initial_distribution_y4=[0.28,0.23,0.043,0.25,0.19];
initial_distribution_y5=[0.13,0.12,0.031,0.23,0.49];
transition_y1=[
0.27,0.12,0.26,0.04,0.31|
0.11,0.24,0.12,0.48,0.049|
0.3,0.066,0.21,0.14,0.29|
0.24,0.13,0.27,0.16,0.21|
0.14,0.33,0.21,0.32,0.0067|
];
transition_y2=[
0.27,0.037,0.22,0.21,0.26|
0.45,0.029,0.013,0.38,0.13|
0.052,0.38,0.37,0.067,0.13|
0.27,0.27,0.11,0.13,0.22|
0.29,0.33,0.17,0.083,0.13|
];
transition_y3=[
0.0083,0.32,0.015,0.32,0.34|
0.35,0.12,0.29,0.14,0.099|
0.07,0.34,0.15,0.15,0.29|
0.2,0.32,0.17,0.27,0.033|
0.24,0.21,0.058,0.37,0.13|
];
transition_y4=[
0.17,0.25,0.14,0.28,0.15|
0.078,0.26,0.17,0.23,0.27|
0.25,0.048,0.25,0.21,0.25|
0.061,0.036,0.32,0.27,0.31|
0.099,0.18,0.53,0.15,0.04|
];
transition_y5=[
0.3,0.016,0.24,0.3,0.15|
0.26,0.27,0.086,0.13,0.25|
0.013,0.18,0.19,0.38,0.24|
0.11,0.38,0.24,0.014,0.25|
0.16,0.28,0.13,0.12,0.31|
];
